CMPL model generation - running

CMPL version: 1.11.0
Authors: Thomas Schleiff, Mike Steglich
Distributed under the GPLv3 

create model instance ...
write model instance ...
CMPL model generation - finished

Solver - running


Welcome to IBM(R) ILOG(R) CPLEX(R) Interactive Optimizer 12.7.1.0
  with Simplex, Mixed Integer & Barrier Optimizers
5725-A06 5725-A29 5724-Y48 5724-Y49 5724-Y54 5724-Y55 5655-Y21
Copyright IBM Corp. 1988, 2017.  All Rights Reserved.

Type 'help' for a list of available commands.
Type 'help' followed by a command name for more
information on commands.

CPLEX> Specified objective sense: MINIMIZE
Selected objective  name:  line[1]
Selected RHS        name:  RHS
Selected bound      name:  BOUND
Problem '/tmp/cmpl.T27390.mps' read.
Read time = 0.10 sec. (16.18 ticks)
CPLEX> New value for mixed integer optimality gap tolerance: 0.007
CPLEX> CPLEX> CPXPARAM_Read_APIEncoding                        "UTF-8"
CPXPARAM_MIP_Tolerances_MIPGap                   0.0070000000000000001
Tried aggregator 3 times.
MIP Presolve eliminated 65074 rows and 42628 columns.
MIP Presolve modified 6670 coefficients.
Aggregator did 1412 substitutions.
Reduced MIP has 5679 rows, 4153 columns, and 17515 nonzeros.
Reduced MIP has 2828 binaries, 0 generals, 0 SOSs, and 0 indicators.
Presolve time = 0.11 sec. (84.07 ticks)
Found incumbent of value 3808.973978 after 0.13 sec. (98.69 ticks)
Probing fixed 0 vars, tightened 452 bounds.
Probing time = 0.04 sec. (12.86 ticks)
Tried aggregator 1 time.
MIP Presolve modified 1195 coefficients.
Reduced MIP has 5679 rows, 4153 columns, and 17515 nonzeros.
Reduced MIP has 2996 binaries, 0 generals, 0 SOSs, and 0 indicators.
Presolve time = 0.02 sec. (13.43 ticks)
Probing time = 0.01 sec. (2.75 ticks)
Clique table members: 2378.
MIP emphasis: balance optimality and feasibility.
MIP search method: dynamic search.
Parallel mode: none, using 1 thread.
Root relaxation solution time = 0.16 sec. (121.54 ticks)

        Nodes                                         Cuts/
   Node  Left     Objective  IInf  Best Integer    Best Bound    ItCnt     Gap

*     0+    0                         3808.9740     -354.0289           109.29%
      0     0     1733.7851   365     3808.9740     1733.7851     4263   54.48%
*     0+    0                         1760.0158     1733.7851             1.49%
      0     0     1735.0392   340     1760.0158     Cuts: 268     4985    1.42%
*     0+    0                         1759.8162     1735.0392             1.41%
      0     0     1735.6489   356     1759.8162     Cuts: 368     6313    1.37%
*     0+    0                         1757.8956     1735.6489             1.27%
      0     0     1736.2931   343     1757.8956     Cuts: 356     7407    1.23%
*     0+    0                         1754.5459     1736.2931             1.04%
      0     0     1736.8674   338     1754.5459     Cuts: 349     8365    1.01%
*     0+    0                         1753.4000     1736.8674             0.94%
      0     0     1737.4808   341     1753.4000     Cuts: 341     9116    0.91%
      0     0     1738.0231   339     1753.4000     Cuts: 292     9835    0.88%
      0     0     1738.4654   347     1753.4000     Cuts: 263    10399    0.85%
      0     0     1738.7900   353     1753.4000     Cuts: 232    10772    0.83%
      0     0     1739.0924   355     1753.4000     Cuts: 213    11212    0.82%
      0     0     1739.3321   365     1753.4000     Cuts: 182    11476    0.80%
      0     0     1739.5560   352     1753.4000     Cuts: 168    11690    0.79%
      0     0     1739.7092   359     1753.4000     Cuts: 132    11857    0.78%
      0     0     1739.8295   355     1753.4000     Cuts: 128    12009    0.77%
*     0+    0                         1750.2644     1739.8295             0.60%

Flow cuts applied:  527
Mixed integer rounding cuts applied:  601
Zero-half cuts applied:  1
Gomory fractional cuts applied:  8

Root node processing (before b&c):
  Real time             =    2.50 sec. (1845.11 ticks)
Sequential b&c:
  Real time             =    0.00 sec. (0.00 ticks)
                          ------------
Total (root+branch&cut) =    2.50 sec. (1845.11 ticks)

Solution pool: 7 solutions saved.

MIP - Integer optimal, tolerance (0.007/1e-06):  Objective =  1.7502644490e+03
Current MIP best bound =  1.7398294658e+03 (gap = 10.435, 0.60%)
Solution time =    2.50 sec.  Iterations = 12009  Nodes = 0 (1)
Deterministic time = 1845.25 ticks  (739.15 ticks/sec)

CPLEX> Incumbent solution written to file '/tmp/cmpl.T27390.gsol'.
CPLEX> 
CMPL: Time used for model generation: 10 seconds
CMPL: Time used for solving the model: 4 seconds


Solution written to ASCII file: /media/sf_ltf/results/output_generated/2017-04-03-4/fair-nonlinear.sol

Solver - finished
